
Gurobi 11.0.3 (linux64) logging started Thu Apr 16 11:17:20 2026

Set parameter LogFile to value "tree/results/blsc/blsc_depth-4_run-2/Full MIP/LogFile_FullModel.txt"
Gurobi Optimizer version 11.0.3 build v11.0.3rc0 (linux64 - "CentOS Linux 7 (Core)")

CPU model: Intel(R) Xeon(R) Platinum 8260 CPU @ 2.40GHz, instruction set [SSE2|AVX|AVX2|AVX512]
Thread count: 96 physical cores, 192 logical processors, using up to 32 threads

Optimize a model with 97610 rows, 60136 columns and 573167 nonzeros
Model fingerprint: 0x37ab9920
Model has 7488 general constraints
Variable types: 37624 continuous, 22512 integer (22512 binary)
Coefficient statistics:
  Matrix range     [2e-03, 1e+04]
  Objective range  [2e-03, 1e+04]
  Bounds range     [1e+00, 5e+02]
  RHS range        [1e-04, 5e+02]

User MIP start produced solution with objective -139299 (0.22s)
Loaded user MIP start with objective -139299

Presolve added 7472 rows and 29952 columns
Presolve time: 0.79s
Presolved: 105082 rows, 90088 columns, 633128 nonzeros
Presolved model has 29952 SOS constraint(s)
Variable types: 37624 continuous, 52464 integer (52464 binary)

Deterministic concurrent LP optimizer: primal simplex, dual simplex, and barrier
Showing barrier log only...

Root relaxation presolved: 105082 rows, 90088 columns, 633128 nonzeros

Root barrier log...

Ordering time: 0.04s

Barrier statistics:
 Dense cols : 75
 AA' NZ     : 6.659e+05
 Factor NZ  : 2.309e+06 (roughly 100 MB of memory)
 Factor Ops : 5.485e+07 (less than 1 second per iteration)
 Threads    : 30

                  Objective                Residual
Iter       Primal          Dual         Primal    Dual     Compl     Time
   0  -1.36286374e+05  7.22885579e+08  4.00e+03 0.00e+00  7.72e+05     2s
   1  -8.79788786e+04  1.18142585e+09  1.07e+03 1.91e+01  1.81e+05     2s
   2  -6.29833812e+04  1.13455970e+09  1.06e+02 2.32e+00  2.19e+04     3s
   3  -9.62484982e+03  5.54503255e+08  1.05e+01 2.95e-01  3.81e+03     3s
   4  -9.66050153e+02  7.38712491e+07  1.04e+00 2.95e-02  4.17e+02     3s
   5  -9.56991066e+01  8.68052271e+06  1.04e-01 2.95e-03  4.55e+01     3s
   6  -8.66422115e+00  8.86769044e+05  1.09e-02 2.96e-04  4.56e+00     3s
   7   3.91086104e-02  9.29934682e+04  1.53e-03 3.11e-05  4.77e-01     4s
   8   9.07636357e-01  1.12285946e+04  4.48e-04 3.75e-06  5.76e-02     4s
   9   9.81141847e-01  1.13477719e+03  4.44e-05 3.75e-07  5.81e-03     4s
  10   9.98113870e-01  1.14477575e+02  4.42e-06 3.76e-08  5.81e-04     4s
  11   9.99811324e-01  1.24508084e+01  4.38e-07 3.76e-09  5.86e-05     4s
  12   9.99981132e-01  2.14508121e+00  4.38e-08 3.76e-10  5.86e-06     4s
  13   9.99998113e-01  1.11554797e+00  4.34e-09 3.76e-11  5.91e-07     5s
  14   9.99999811e-01  1.01155480e+00  4.34e-10 3.76e-12  5.91e-08     5s
  15   9.99999981e-01  1.00116597e+00  4.30e-11 3.76e-13  5.96e-09     5s
  16   9.99999998e-01  1.00011660e+00  4.43e-12 3.76e-14  5.96e-10     5s
  17   1.00000000e+00  1.00001166e+00  6.75e-13 3.76e-15  5.96e-11     5s
  18   1.00000000e+00  1.00000117e+00  4.26e-13 1.42e-14  5.96e-12     6s
  19   1.00000000e+00  1.00000012e+00  4.12e-13 3.76e-17  5.96e-13     6s
  20   1.00000000e+00  1.00000001e+00  4.09e-13 1.42e-14  5.96e-14     6s

Barrier solved model in 20 iterations and 6.04 seconds (3.44 work units)
Optimal objective 1.00000000e+00


Root crossover log...

    4488 DPushes remaining with DInf 0.0000000e+00                 6s
       0 DPushes remaining with DInf 0.0000000e+00                 6s

   35615 PPushes remaining with PInf 0.0000000e+00                 6s
       0 PPushes remaining with PInf 0.0000000e+00                 7s

  Push phase complete: Pinf 0.0000000e+00, Dinf 0.0000000e+00      7s


Root simplex log...

Iteration    Objective       Primal Inf.    Dual Inf.      Time
   35619    1.0000000e+00   0.000000e+00   0.000000e+00      7s
   35619    1.0000000e+00   0.000000e+00   0.000000e+00      7s
Concurrent spin time: 0.03s

Solved with barrier

Root relaxation: objective 1.000000e+00, 35619 iterations, 5.34 seconds (2.74 work units)
Total elapsed time = 21.09s (DegenMoves)

    Nodes    |    Current Node    |     Objective Bounds      |     Work
 Expl Unexpl |  Obj  Depth IntInf | Incumbent    BestBd   Gap | It/Node Time

     0     0    1.00000    0 7340 -139299.18    1.00000   100%     -   21s
     0     2    1.00000    0 7340 -139299.18    1.00000   100%     -  267s
     1     4    1.00000    1 7339 -139299.18    1.00000   100% 10500  305s
    31    64    1.00000    5 7335 -139299.18    1.00000   100%   340  385s
H   32    64                    -60099.17735    1.00000   100%   330  385s
H   43    64                       0.8183761    1.00000  22.2%   245  386s
    63    96    1.00000    6 7334    0.81838    1.00000  22.2%   168  536s
    95   128    1.00000    7 7333    0.81838    1.00000  22.2%   112  846s
   159   192    1.00000    9 7331    0.81838    1.00000  22.2%  67.2 2261s
   191   224    1.00000   10 7330    0.81838    1.00000  22.2%  56.2 2886s
   223   320    1.00000   11 7329    0.81838    1.00000  22.2%  48.3 3617s

Explored 319 nodes (136592 simplex iterations) in 3618.07 seconds (3220.39 work units)
Thread count was 32 (of 192 available processors)

Solution count 3: 0.818376 -60099.2 -139299 

Time limit reached
Best objective 8.183760683765e-01, best bound 1.000000000000e+00, gap 22.1932%

User-callback calls 2259353, time in user-callback 10.95 sec
